
Starting CP-SAT solver v9.14.6206
Parameters: log_search_progress: true relative_gap_limit: 0
Setting number of workers to 20

Initial optimization model '': (model_fingerprint: 0xe9ef99f3a45c54f1)
#Variables: 201 (#ints: 1 in objective) (200 primary variables)
  - 201 in [0,5109]
#kInterval: 100
#kLinear1: 10
#kLinear2: 100
#kNoOverlap: 10 (#intervals: 100)

Starting presolve at 0.00s
  5.17e-05s  0.00e+00d  [DetectDominanceRelations] 
  1.13e-03s  0.00e+00d  [operations_research::sat::CpModelPresolver::PresolveToFixPoint] #num_loops=10 #num_dual_strengthening=1 
  6.60e-06s  0.00e+00d  [operations_research::sat::CpModelPresolver::ExtractEncodingFromLinear] 
  3.01e-05s  0.00e+00d  [operations_research::sat::CpModelPresolver::DetectDuplicateColumns] 
  5.83e-05s  0.00e+00d  [operations_research::sat::CpModelPresolver::DetectDuplicateConstraints] 
[Symmetry] Graph for symmetry has 502 nodes and 491 arcs.
[Symmetry] Symmetry computation done. time: 4.16e-05 dtime: 4.668e-05
  3.79e-05s  0.00e+00d  [operations_research::sat::CpModelPresolver::DetectDuplicateConstraintsWithDifferentEnforcements] 
  4.42e-04s  1.51e-06d  [operations_research::sat::CpModelPresolver::Probe] 
  9.20e-06s  0.00e+00d  [MaxClique] 
  2.75e-05s  0.00e+00d  [DetectDominanceRelations] 
  1.86e-04s  0.00e+00d  [operations_research::sat::CpModelPresolver::PresolveToFixPoint] #num_loops=1 #num_dual_strengthening=1 
  2.21e-05s  0.00e+00d  [operations_research::sat::CpModelPresolver::ProcessAtMostOneAndLinear] 
  3.50e-05s  0.00e+00d  [operations_research::sat::CpModelPresolver::DetectDuplicateConstraints] 
  3.31e-05s  0.00e+00d  [operations_research::sat::CpModelPresolver::DetectDuplicateConstraintsWithDifferentEnforcements] 
  2.73e-05s  6.00e-07d  [operations_research::sat::CpModelPresolver::DetectDominatedLinearConstraints] #relevant_constraints=100 
  2.08e-05s  0.00e+00d  [operations_research::sat::CpModelPresolver::DetectDifferentVariables] 
  2.60e-06s  0.00e+00d  [operations_research::sat::CpModelPresolver::ProcessSetPPC] 
  3.80e-06s  0.00e+00d  [operations_research::sat::CpModelPresolver::FindAlmostIdenticalLinearConstraints] 
  6.20e-06s  0.00e+00d  [operations_research::sat::CpModelPresolver::FindBigAtMostOneAndLinearOverlap] 
  1.81e-05s  3.60e-06d  [operations_research::sat::CpModelPresolver::FindBigVerticalLinearOverlap] 
  2.70e-06s  0.00e+00d  [operations_research::sat::CpModelPresolver::FindBigHorizontalLinearOverlap] 
  4.20e-06s  0.00e+00d  [operations_research::sat::CpModelPresolver::MergeClauses] 
  2.56e-05s  0.00e+00d  [DetectDominanceRelations] 
  1.65e-04s  0.00e+00d  [operations_research::sat::CpModelPresolver::PresolveToFixPoint] #num_loops=1 #num_dual_strengthening=1 
  2.38e-05s  0.00e+00d  [DetectDominanceRelations] 
  1.60e-04s  0.00e+00d  [operations_research::sat::CpModelPresolver::PresolveToFixPoint] #num_loops=1 #num_dual_strengthening=1 
  9.00e-06s  0.00e+00d  [operations_research::sat::CpModelPresolver::DetectDuplicateColumns] 
  3.32e-05s  0.00e+00d  [operations_research::sat::CpModelPresolver::DetectDuplicateConstraints] 
[Symmetry] Graph for symmetry has 502 nodes and 491 arcs.
[Symmetry] Symmetry computation done. time: 2.37e-05 dtime: 4.668e-05
  3.69e-05s  0.00e+00d  [operations_research::sat::CpModelPresolver::DetectDuplicateConstraintsWithDifferentEnforcements] 
  2.92e-04s  1.51e-06d  [operations_research::sat::CpModelPresolver::Probe] 
  2.20e-06s  0.00e+00d  [MaxClique] 
  2.71e-05s  0.00e+00d  [DetectDominanceRelations] 
  1.78e-04s  0.00e+00d  [operations_research::sat::CpModelPresolver::PresolveToFixPoint] #num_loops=1 #num_dual_strengthening=1 
  2.20e-05s  0.00e+00d  [operations_research::sat::CpModelPresolver::ProcessAtMostOneAndLinear] 
  3.89e-05s  0.00e+00d  [operations_research::sat::CpModelPresolver::DetectDuplicateConstraints] 
  3.71e-05s  0.00e+00d  [operations_research::sat::CpModelPresolver::DetectDuplicateConstraintsWithDifferentEnforcements] 
  2.06e-05s  6.00e-07d  [operations_research::sat::CpModelPresolver::DetectDominatedLinearConstraints] #relevant_constraints=100 
  2.01e-05s  0.00e+00d  [operations_research::sat::CpModelPresolver::DetectDifferentVariables] 
  2.20e-06s  0.00e+00d  [operations_research::sat::CpModelPresolver::ProcessSetPPC] 
  2.60e-06s  0.00e+00d  [operations_research::sat::CpModelPresolver::FindAlmostIdenticalLinearConstraints] 
  5.50e-06s  0.00e+00d  [operations_research::sat::CpModelPresolver::FindBigAtMostOneAndLinearOverlap] 
  1.62e-05s  3.60e-06d  [operations_research::sat::CpModelPresolver::FindBigVerticalLinearOverlap] 
  1.80e-06s  0.00e+00d  [operations_research::sat::CpModelPresolver::FindBigHorizontalLinearOverlap] 
  2.70e-06s  0.00e+00d  [operations_research::sat::CpModelPresolver::MergeClauses] 
  2.90e-05s  0.00e+00d  [DetectDominanceRelations] 
  1.89e-04s  0.00e+00d  [operations_research::sat::CpModelPresolver::PresolveToFixPoint] #num_loops=1 #num_dual_strengthening=1 
  7.20e-06s  0.00e+00d  [operations_research::sat::CpModelPresolver::ExpandObjective] 

Presolve summary:
  - 100 affine relations were detected.
  - rule 'TODO dual: only one blocking constraint?' was applied 60 times.
  - rule 'TODO dual: only one unspecified blocking constraint?' was applied 6 times.
  - rule 'affine: new relation' was applied 100 times.
  - rule 'linear: always true' was applied 10 times.
  - rule 'linear: reduced variable domains' was applied 554 times.
  - rule 'linear: remapped using affine relations' was applied 200 times.
  - rule 'presolve: 0 unused variables removed.' was applied 1 time.
  - rule 'presolve: iteration' was applied 2 times.

Presolved optimization model '': (model_fingerprint: 0x3c81c36f35bcf677)
#Variables: 101 (#ints: 1 in objective) (100 primary variables)
  - 101 different domains in [0,5109] with a largest complexity of 1.
#kInterval: 100
#kLinear2: 100
#kNoOverlap: 10 (#intervals: 100)
[Symmetry] Graph for symmetry has 402 nodes and 491 arcs.
[Symmetry] Symmetry computation done. time: 2.52e-05 dtime: 4.068e-05

Preloading model.
#Bound   0.01s best:inf   next:[655,5109] initial_domain
#Model   0.01s var:101/101 constraints:210/210

Starting search at 0.01s with 20 workers.
13 full problem subsolvers: [default_lp, fixed, lb_tree_search, max_lp, no_lp, objective_lb_search, objective_shaving_max_lp, objective_shaving_no_lp, probing, pseudo_costs, quick_restart, quick_restart_no_lp, reduced_costs]
7 first solution subsolvers: [fj(2), fj_lin, fs_random, fs_random_no_lp, fs_random_quick_restart, fs_random_quick_restart_no_lp]
17 interleaved subsolvers: [feasibility_pump, graph_arc_lns, graph_cst_lns, graph_dec_lns, graph_var_lns, lb_relax_lns, ls(2), ls_lin, rins/rens, rnd_cst_lns, rnd_var_lns, scheduling_intervals_lns, scheduling_precedences_lns, scheduling_resource_windows_lns, scheduling_time_window_lns, variables_shaving]
3 helper subsolvers: [neighborhood_helper, synchronization_agent, update_gap_integral]

#1       0.01s best:1108  next:[655,1107] no_lp
#Bound   0.01s best:1108  next:[808,1107] no_lp
#2       0.01s best:1098  next:[808,1097] no_lp
#3       0.03s best:1096  next:[808,1095] scheduling_resource_windows_lns (d=5.00e-01 s=29 t=0.10 p=0.00 stall=0 h=base)
#4       0.03s best:1093  next:[808,1092] no_lp
#5       0.03s best:1090  next:[808,1089] default_lp
#6       0.04s best:1083  next:[808,1082] default_lp
#Bound   0.04s best:1083  next:[814,1082] objective_shaving_no_lp (vars=100 csts=200)
#7       0.04s best:1082  next:[814,1081] quick_restart_no_lp
#8       0.05s best:1079  next:[814,1078] quick_restart_no_lp
#9       0.05s best:1072  next:[814,1071] graph_arc_lns (d=7.07e-01 s=42 t=0.10 p=1.00 stall=0 h=base)
#10      0.05s best:1069  next:[814,1068] quick_restart_no_lp
#11      0.05s best:1065  next:[814,1064] quick_restart_no_lp
#12      0.06s best:1064  next:[814,1063] quick_restart_no_lp
#13      0.06s best:1063  next:[814,1062] fixed
#14      0.07s best:1059  next:[814,1058] scheduling_resource_windows_lns (d=7.07e-01 s=46 t=0.10 p=1.00 stall=0 h=base)
#Bound   0.07s best:1059  next:[815,1058] reduced_costs
#Bound   0.07s best:1059  next:[827,1058] objective_lb_search
#15      0.08s best:1057  next:[827,1056] no_lp
#Bound   0.08s best:1057  next:[832,1056] objective_lb_search
#Bound   0.08s best:1057  next:[833,1056] objective_lb_search
#Bound   0.08s best:1057  next:[834,1056] objective_lb_search
#Bound   0.08s best:1057  next:[839,1056] objective_lb_search
#Bound   0.08s best:1057  next:[842,1056] objective_lb_search
#Bound   0.08s best:1057  next:[861,1056] objective_lb_search
#Bound   0.08s best:1057  next:[862,1056] objective_lb_search
#Bound   0.08s best:1057  next:[863,1056] objective_lb_search
#16      0.08s best:1053  next:[863,1052] no_lp
#Bound   0.08s best:1053  next:[868,1052] objective_lb_search
#17      0.08s best:1051  next:[868,1050] no_lp
#18      0.08s best:1047  next:[868,1046] rnd_var_lns (d=8.14e-01 s=54 t=0.10 p=1.00 stall=0 h=base)
#19      0.09s best:1046  next:[868,1045] no_lp
#20      0.09s best:1045  next:[868,1044] no_lp
#21      0.10s best:1044  next:[868,1043] no_lp
#22      0.10s best:1043  next:[868,1042] no_lp
#23      0.10s best:1039  next:[868,1038] no_lp
#24      0.10s best:1037  next:[868,1036] no_lp
#25      0.11s best:1034  next:[868,1033] graph_var_lns (d=8.14e-01 s=56 t=0.10 p=1.00 stall=0 h=base)
#26      0.11s best:1033  next:[868,1032] default_lp
#27      0.11s best:1032  next:[868,1031] no_lp
#28      0.12s best:1028  next:[868,1027] default_lp
#29      0.12s best:1027  next:[868,1026] default_lp
#30      0.12s best:1022  next:[868,1021] default_lp
#31      0.13s best:1018  next:[868,1017] default_lp
#32      0.13s best:1016  next:[868,1015] default_lp
#33      0.13s best:1012  next:[868,1011] default_lp
#Bound   0.14s best:1012  next:[869,1011] objective_lb_search
#34      0.14s best:1011  next:[869,1010] default_lp
#35      0.14s best:1004  next:[869,1003] default_lp
#36      0.14s best:1003  next:[869,1002] default_lp
#37      0.14s best:988   next:[869,987]  rins_pump_lns (d=5.00e-01 s=69 t=0.10 p=0.00 stall=0 h=base)
#38      0.15s best:987   next:[869,986]  quick_restart_no_lp
#39      0.15s best:985   next:[869,984]  default_lp
#40      0.16s best:983   next:[869,982]  default_lp
#41      0.16s best:982   next:[869,981]  default_lp
#Bound   0.16s best:982   next:[870,981]  reduced_costs
#42      0.17s best:981   next:[870,980]  default_lp
#43      0.17s best:976   next:[870,975]  graph_cst_lns (d=8.76e-01 s=76 t=0.10 p=1.00 stall=0 h=base)
#44      0.18s best:975   next:[870,974]  graph_dec_lns (d=8.76e-01 s=78 t=0.10 p=1.00 stall=0 h=base)
#Bound   0.18s best:975   next:[871,974]  reduced_costs
#Bound   0.20s best:975   next:[872,974]  reduced_costs
#45      0.20s best:971   next:[872,970]  rins_pump_lns (d=7.07e-01 s=85 t=0.10 p=1.00 stall=0 h=base)
#Bound   0.26s best:971   next:[873,970]  reduced_costs
#46      0.27s best:970   next:[873,969]  quick_restart
#Bound   0.28s best:970   next:[874,969]  reduced_costs
#Bound   0.30s best:970   next:[875,969]  reduced_costs
#47      0.33s best:969   next:[876,968]  quick_restart
#48      0.34s best:968   next:[876,967]  quick_restart
#49      0.36s best:967   next:[876,966]  quick_restart_no_lp
#50      0.36s best:966   next:[876,965]  quick_restart_no_lp
#51      0.39s best:965   next:[877,964]  quick_restart
#52      0.40s best:964   next:[877,963]  quick_restart_no_lp
#53      0.47s best:963   next:[881,962]  quick_restart_no_lp
#54      0.48s best:962   next:[881,961]  quick_restart_no_lp
#55      0.48s best:961   next:[881,960]  quick_restart_no_lp
#56      0.49s best:960   next:[881,959]  quick_restart_no_lp
#57      0.55s best:959   next:[882,958]  probing
#58      0.56s best:949   next:[883,948]  graph_var_lns (d=9.39e-01 s=108 t=0.10 p=1.00 stall=1 h=base)
#59      0.58s best:948   next:[883,947]  quick_restart_no_lp
#60      0.58s best:946   next:[883,945]  quick_restart_no_lp
#61      0.58s best:945   next:[883,944]  quick_restart_no_lp
#62      0.62s best:944   next:[884,943]  scheduling_time_window_lns (d=7.07e-01 s=118 t=0.10 p=1.00 stall=0 h=base)
#63      0.66s best:941   next:[886,940]  quick_restart
#64      0.67s best:939   next:[886,938]  quick_restart
#65      0.71s best:938   next:[887,937]  quick_restart_no_lp
#Bound   0.94s best:938   next:[890,937]  reduced_costs [skipped_logs=14]
#66      1.54s best:937   next:[894,936]  max_lp
#Bound   2.00s best:937   next:[898,936]  reduced_costs [skipped_logs=7]
#67      2.11s best:930   next:[898,929]  graph_arc_lns (d=9.81e-01 s=169 t=0.10 p=1.00 stall=0 h=base)
#Bound   2.96s best:930   next:[914,929]  reduced_costs [skipped_logs=5]
#Done    3.38s no_lp
#Done    3.38s probing
#Bound   3.36s best:930   next:[927,929]  lb_tree_search (nodes=52/122 rc=0 decisions=7683 @root=20 restarts=7 lp_iters=[0, 0, 21'590, 11'057])  [skipped_logs=12]

Task timing                                  n [     min,      max]      avg      dev     time         n [     min,      max]      avg      dev    dtime
                       'default_lp':         1 [   3.37s,    3.37s]    3.37s   0.00ns    3.37s         1 [864.20ms, 864.20ms] 864.20ms   0.00ns 864.20ms
                 'feasibility_pump':        17 [ 79.70us,   1.81ms] 234.26us 430.08us   3.98ms        16 [ 13.78us,  73.96us]  17.54us  14.57us 280.60us
                            'fixed':         1 [   3.37s,    3.37s]    3.37s   0.00ns    3.37s         1 [374.27ms, 374.27ms] 374.27ms   0.00ns 374.27ms
                               'fj':         0 [  0.00ns,   0.00ns]   0.00ns   0.00ns   0.00ns         0 [  0.00ns,   0.00ns]   0.00ns   0.00ns   0.00ns
                               'fj':         1 [113.68ms, 113.68ms] 113.68ms   0.00ns 113.68ms         1 [100.01ms, 100.01ms] 100.01ms   0.00ns 100.01ms
                           'fj_lin':         0 [  0.00ns,   0.00ns]   0.00ns   0.00ns   0.00ns         0 [  0.00ns,   0.00ns]   0.00ns   0.00ns   0.00ns
                        'fs_random':         1 [  1.13ms,   1.13ms]   1.13ms   0.00ns   1.13ms         0 [  0.00ns,   0.00ns]   0.00ns   0.00ns   0.00ns
                  'fs_random_no_lp':         1 [  1.30ms,   1.30ms]   1.30ms   0.00ns   1.30ms         0 [  0.00ns,   0.00ns]   0.00ns   0.00ns   0.00ns
          'fs_random_quick_restart':         1 [  1.25ms,   1.25ms]   1.25ms   0.00ns   1.25ms         0 [  0.00ns,   0.00ns]   0.00ns   0.00ns   0.00ns
    'fs_random_quick_restart_no_lp':         1 [  1.46ms,   1.46ms]   1.46ms   0.00ns   1.46ms         0 [  0.00ns,   0.00ns]   0.00ns   0.00ns   0.00ns
                    'graph_arc_lns':        11 [  5.25ms, 991.65ms] 193.85ms 292.79ms    2.13s        11 [ 11.86us, 100.07ms]  18.82ms  29.97ms 207.00ms
                    'graph_cst_lns':        10 [628.90us, 917.89ms] 201.70ms 316.02ms    2.02s         9 [  3.50us, 100.06ms]  23.10ms  34.94ms 207.89ms
                    'graph_dec_lns':        11 [  3.37ms, 867.75ms] 152.31ms 269.84ms    1.68s        11 [  2.90us, 100.01ms]  16.28ms  30.96ms 179.08ms
                    'graph_var_lns':         9 [  3.54ms, 903.96ms] 225.26ms 329.97ms    2.03s         9 [  3.00us, 100.00ms]  23.79ms  36.55ms 214.08ms
                     'lb_relax_lns':         8 [143.00us,    2.51s] 324.58ms 826.49ms    2.60s         6 [464.95us, 330.83ms]  56.47ms 122.70ms 338.83ms
                   'lb_tree_search':         1 [   3.37s,    3.37s]    3.37s   0.00ns    3.37s         1 [528.79ms, 528.79ms] 528.79ms   0.00ns 528.79ms
                               'ls':        15 [ 99.00ms, 125.00ms] 113.64ms   8.07ms    1.70s        15 [100.00ms, 100.07ms] 100.02ms  19.23us    1.50s
                               'ls':        17 [ 86.50us, 121.28ms]  98.88ms  30.22ms    1.68s        16 [ 44.21ms, 100.10ms]  96.54ms  13.51ms    1.54s
                           'ls_lin':        16 [ 84.00ms, 117.52ms] 101.54ms   9.61ms    1.62s        16 [ 81.95ms, 100.03ms]  98.05ms   5.26ms    1.57s
                           'max_lp':         1 [   3.37s,    3.37s]    3.37s   0.00ns    3.37s         0 [  0.00ns,   0.00ns]   0.00ns   0.00ns   0.00ns
                            'no_lp':         1 [   3.37s,    3.37s]    3.37s   0.00ns    3.37s         1 [389.51ms, 389.51ms] 389.51ms   0.00ns 389.51ms
              'objective_lb_search':         1 [   3.37s,    3.37s]    3.37s   0.00ns    3.37s         1 [457.22ms, 457.22ms] 457.22ms   0.00ns 457.22ms
         'objective_shaving_max_lp':        17 [  1.75ms,   7.55ms]   6.59ms   1.53ms 111.96ms        16 [  7.48us,  56.47us]  21.07us   9.80us 337.10us
          'objective_shaving_no_lp':        17 [696.50us,   9.49ms]   6.10ms   1.84ms 103.76ms        16 [  7.48us,  55.75us]  19.09us  10.51us 305.48us
                          'probing':         1 [   3.37s,    3.37s]    3.37s   0.00ns    3.37s         1 [314.27ms, 314.27ms] 314.27ms   0.00ns 314.27ms
                     'pseudo_costs':         1 [   3.37s,    3.37s]    3.37s   0.00ns    3.37s         1 [847.33ms, 847.33ms] 847.33ms   0.00ns 847.33ms
                    'quick_restart':         1 [   3.37s,    3.37s]    3.37s   0.00ns    3.37s         1 [443.07ms, 443.07ms] 443.07ms   0.00ns 443.07ms
              'quick_restart_no_lp':         1 [   3.37s,    3.37s]    3.37s   0.00ns    3.37s         1 [560.37ms, 560.37ms] 560.37ms   0.00ns 560.37ms
                    'reduced_costs':         1 [   3.37s,    3.37s]    3.37s   0.00ns    3.37s         1 [427.90ms, 427.90ms] 427.90ms   0.00ns 427.90ms
                        'rins/rens':        14 [ 35.00us, 710.44ms] 180.69ms 228.73ms    2.53s        10 [ 29.93us,  69.99ms]  25.24ms  23.82ms 252.40ms
                      'rnd_cst_lns':        11 [437.80us, 853.05ms] 168.57ms 276.33ms    1.85s        10 [  5.80us, 100.04ms]  19.09ms  31.71ms 190.94ms
                      'rnd_var_lns':        17 [  2.81ms, 457.21ms] 135.07ms 126.12ms    2.30s        17 [  2.45us,  48.68ms]  12.71ms  13.21ms 216.01ms
         'scheduling_intervals_lns':         5 [ 18.91ms, 981.49ms] 436.44ms 392.77ms    2.18s         5 [785.18us, 100.00ms]  45.33ms  45.03ms 226.67ms
       'scheduling_precedences_lns':         7 [ 21.45ms, 644.87ms] 263.58ms 211.29ms    1.85s         7 [603.22us,  65.26ms]  24.47ms  21.83ms 171.32ms
  'scheduling_resource_windows_lns':        17 [  6.69ms,  15.50ms]   8.40ms   2.06ms 142.76ms        17 [  9.01us, 437.07us]  61.07us 104.53us   1.04ms
       'scheduling_time_window_lns':         4 [ 51.43ms, 953.57ms] 461.68ms 391.14ms    1.85s         4 [  4.24ms, 100.02ms]  48.22ms  42.88ms 192.87ms
                'variables_shaving':         6 [ 11.43ms, 768.34ms] 301.11ms 321.29ms    1.81s         6 [363.52us, 100.08ms]  38.00ms  44.25ms 228.00ms

Search stats                        Bools  Conflicts  Branches  Restarts  BoolPropag  IntegerPropag
                     'default_lp':  5'032      7'806    25'359     1'197   6'126'549      2'161'945
                          'fixed':  1'272      5'848    10'806       468   1'226'433      1'487'391
                      'fs_random':      0          0         0         0           0              0
                'fs_random_no_lp':      0          0         0         0           0              0
        'fs_random_quick_restart':      0          0         0         0           0              0
  'fs_random_quick_restart_no_lp':      0          0         0         0           0              0
                 'lb_tree_search':    450      1'116    17'283     4'712     356'567        634'774
                         'max_lp':  3'336      4'728    26'273     2'350   2'550'815      1'340'875
                          'no_lp':    752      7'114    24'473     2'063     687'425      1'979'817
            'objective_lb_search':  1'777      6'882    25'510     1'021   2'031'017      1'727'058
                        'probing':  1'060      3'610    16'844     6'935     804'892      1'139'238
                   'pseudo_costs':  4'230      6'863    24'184     1'797   4'417'451      1'540'730
                  'quick_restart':  2'475      4'102    23'638     2'097   1'940'134      1'819'123
            'quick_restart_no_lp':  2'910      4'896    30'559     2'135   2'796'548      2'132'477
                  'reduced_costs':    492      1'406    19'843     7'521     320'028        569'905

SAT stats                           ClassicMinim  LitRemoved  LitLearned  LitForgotten  Subsumed  MClauses  MDecisions  MLitTrue  MSubsumed  MLitRemoved  MReused
                     'default_lp':         6'833      43'368      41'330             0         9       927       1'926         0        372        1'614      563
                          'fixed':         4'473      12'923     110'236             0        23         6           9         0          0            2        3
                      'fs_random':             0           0           0             0         0         0           0         0          0            0        0
                'fs_random_no_lp':             0           0           0             0         0         0           0         0          0            0        0
        'fs_random_quick_restart':             0           0           0             0         0         0           0         0          0            0        0
  'fs_random_quick_restart_no_lp':             0           0           0             0         0         0           0         0          0            0        0
                 'lb_tree_search':           843       7'611      12'076             0        22       690       1'842         0        114          670       55
                         'max_lp':         3'858      18'781      29'904             0        21     2'038       4'256        49        702        3'742    1'461
                          'no_lp':         6'563      37'221      69'773             0        78     1'031       3'827        31        313        2'070      186
            'objective_lb_search':         5'725      25'491      44'869             0        42     1'380       2'606         0        296        1'425    1'672
                        'probing':         2'959      30'615      39'589             0        55       828       3'906         0        260        2'279      124
                   'pseudo_costs':         5'858      29'526      55'447             0        17     1'358       2'504       141        500        4'037      712
                  'quick_restart':         3'757      24'737      39'220             0        13     1'113       2'933         9        276        1'427      403
            'quick_restart_no_lp':         4'402      32'737      46'668             0        19     1'009       2'882        25        296        1'607      219
                  'reduced_costs':         1'133       8'943       9'357             0        46        50         113         1         17           76        8

Lp stats                  Component  Iterations  AddedCuts  OPTIMAL  DUAL_F.  DUAL_U.
           'default_lp':          1           0          0   20'696        0        0
                'fixed':          1           0          0   43'264        0        0
       'lb_tree_search':          1      33'688        800   12'433      686        0
               'max_lp':          1      20'379      1'174    9'886      334        0
  'objective_lb_search':          1           0          0   31'222        0        0
              'probing':          1           0          0   31'682        0        0
         'pseudo_costs':          1      19'857        872   12'346      318        0
        'quick_restart':          1           0          0   27'547        0        0
        'reduced_costs':          1      19'501      1'679    6'241      403        0

Lp dimension              Final dimension of first component
           'default_lp':      0 rows, 101 columns, 0 entries
                'fixed':      0 rows, 101 columns, 0 entries
       'lb_tree_search':  177 rows, 101 columns, 495 entries
               'max_lp':   76 rows, 101 columns, 186 entries
  'objective_lb_search':      0 rows, 101 columns, 0 entries
              'probing':      0 rows, 101 columns, 0 entries
         'pseudo_costs':  157 rows, 101 columns, 416 entries
        'quick_restart':      0 rows, 101 columns, 0 entries
        'reduced_costs':  203 rows, 101 columns, 664 entries

Lp debug                  CutPropag  CutEqPropag  Adjust  Overflow     Bad  BadScaling
           'default_lp':          0            0       0         0       0           0
                'fixed':          0            0       0         0       0           0
       'lb_tree_search':          0            7       0         0   8'693           0
               'max_lp':          0           14       0         0   5'412           0
  'objective_lb_search':          0            0       0         0       0           0
              'probing':          0            0       0         0       0           0
         'pseudo_costs':          0           12       0         0   1'764           0
        'quick_restart':          0            0       0         0       0           0
        'reduced_costs':          0           66       0         0  17'686           0

Lp pool                   Constraints  Updates  Simplif  Merged  Shortened  Split  Strenghtened    Cuts/Call
           'default_lp':          100        0        0       0          0      0             0          0/0
                'fixed':          100        0        0       0          0      0             0          0/0
       'lb_tree_search':          854    1'063      110      46          0      0             9    800/1'289
               'max_lp':        1'018      916      669     256          0      0            18  1'174/1'858
  'objective_lb_search':          100        0       20       0          0      0             0          0/0
              'probing':          100        0       75       0          0      0             0          0/0
         'pseudo_costs':          721      478      330     251          0      0             2    872/1'228
        'quick_restart':          100        0       82       0          0      0             0          0/0
        'reduced_costs':        1'526    1'820    5'926     253          0      4           122  1'679/3'012

Lp Cut                                                max_lp  lb_tree_search  reduced_costs  pseudo_costs
                                              CG_FF:       1               2              2             -
                                               CG_K:       4              29             32             4
                                               CG_R:      12              37             65             8
                                            MIR_1_K:       4               3              3             -
                                            MIR_1_R:       4               -              7             9
                                            MIR_2_K:       1               1              6             -
                                            MIR_2_R:       -               2              4             -
                                            MIR_3_K:       -               1              1             -
                                            MIR_3_R:       -               1              5             -
                                            MIR_4_K:       -               1              -             -
                                            MIR_4_R:       2               2              2             -
                                            MIR_5_R:       2               -              1             -
                                            MIR_6_K:       -               -              1             -
                                            MIR_6_R:       3               1              1             -
                  NoOverlapCompletionTimeExhaustive:      72              42            128            30
           NoOverlapCompletionTimeExhaustive_lifted:      54              29             91            42
  NoOverlapCompletionTimeExhaustive_lifted_weighted:     178              92            149           127
         NoOverlapCompletionTimeExhaustive_weighted:     151             134            317            78
                    NoOverlapCompletionTimeQueyrane:     108              95            166            90
             NoOverlapCompletionTimeQueyrane_lifted:     143             104            209           148
                        NoOverlapDetectedPrecedence:      10              17             46            28
                          NoOverlapDisjunctionOnEnd:     168              82            253            20
                        NoOverlapDisjunctionOnStart:     240             111            132           281
                                        ZERO_HALF_R:      17              14             58             7

LNS stats                             Improv/Calls  Closed  Difficulty  TimeLimit
                    'graph_arc_lns':         10/11     91%    9.82e-01       0.10
                    'graph_cst_lns':          9/10     90%    9.76e-01       0.10
                    'graph_dec_lns':         10/11     91%    9.81e-01       0.10
                    'graph_var_lns':           8/9     89%    9.68e-01       0.10
                     'lb_relax_lns':           6/6     83%    9.16e-01       0.50
                        'rins/rens':         11/11    100%    9.89e-01       0.10
                      'rnd_cst_lns':          8/11     82%    9.69e-01       0.10
                      'rnd_var_lns':         16/17     65%    9.57e-01       0.10
         'scheduling_intervals_lns':           5/5     60%    7.29e-01       0.10
       'scheduling_precedences_lns':           7/7    100%    9.67e-01       0.10
  'scheduling_resource_windows_lns':         16/17    100%    9.97e-01       0.10
       'scheduling_time_window_lns':           4/4     75%    8.21e-01       0.10

LS stats                                    Batches  Restarts/Perturbs  LinMoves  GenMoves  CompoundMoves  Bactracks  WeightUpdates  ScoreComputed
                             'fj_restart':        1                  1         0     1'785              0          0            381        493'794
                         'ls_lin_restart':        2                  2         0     5'131              0          0          2'696        973'821
                'ls_lin_restart_compound':        3                  3         0    45'325          1'020     22'152            809      1'352'472
        'ls_lin_restart_compound_perturb':        2                  2         0    31'864            670     15'596            529        900'753
                   'ls_lin_restart_decay':        2                  2         0     8'830              0          0            496        968'567
          'ls_lin_restart_decay_compound':        1                  1         0     9'239            813      4'213             39        403'824
  'ls_lin_restart_decay_compound_perturb':        2                  2         0    20'790          1'871      9'457            134        843'050
           'ls_lin_restart_decay_perturb':        4                  4         5    17'392              0          0          1'080      1'938'088
                             'ls_restart':        3                  3         0     7'053              0          0          2'450      1'465'959
                    'ls_restart_compound':        5                  5         0    78'330          1'177     38'568          1'301      2'249'664
            'ls_restart_compound_perturb':        3                  3         0    31'823            555     15'629            480        903'609
                       'ls_restart_decay':        2                  2         0     6'614              0          0            429        698'018
              'ls_restart_decay_compound':        6                  6         0    62'031          5'648     28'182            401      2'801'257
      'ls_restart_decay_compound_perturb':        4                  4         0    42'528          3'610     19'455            255      1'865'754
               'ls_restart_decay_perturb':        4                  4         0    17'871              0          0          1'018      1'935'074
                     'ls_restart_perturb':        5                  5         0    12'619              0          0          4'471      2'435'607

Solutions (67)                        Num     Rank
                       'default_lp':   16   [5,42]
                            'fixed':    1  [13,13]
                    'graph_arc_lns':    2   [9,67]
                    'graph_cst_lns':    1  [43,43]
                    'graph_dec_lns':    1  [44,44]
                    'graph_var_lns':    2  [25,58]
                           'max_lp':    1  [66,66]
                            'no_lp':   13   [1,27]
                          'probing':    1  [57,57]
                    'quick_restart':    6  [46,64]
              'quick_restart_no_lp':   17   [7,65]
                    'rins_pump_lns':    2  [37,45]
                      'rnd_var_lns':    1  [18,18]
  'scheduling_resource_windows_lns':    2   [3,14]
       'scheduling_time_window_lns':    1  [62,62]

Objective bounds              Num
           'initial_domain':    1
           'lb_tree_search':   12
                    'no_lp':    2
      'objective_lb_search':   11
  'objective_shaving_no_lp':    1
            'reduced_costs':   36

Solution repositories    Added  Queried  Synchro
  'feasible solutions':    157      309      115
   'fj solution hints':      0        0        0
        'lp solutions':    148        7       80
                'pump':     16        7

Improving bounds shared      Num  Sym
            'default_lp':  1'734    0
                 'fixed':    101    0
                'max_lp':     52    0
                 'no_lp':  1'894    0
   'objective_lb_search':     12    0
               'probing':    482    0
          'pseudo_costs':    136    0
         'quick_restart':  1'021    0
   'quick_restart_no_lp':  2'204    0
         'reduced_costs':     24    0
     'variables_shaving':      1    0

CpSolverResponse summary:
status: OPTIMAL
objective: 930
best_bound: 930
integers: 101
booleans: 0
conflicts: 0
branches: 0
propagations: 0
integer_propagations: 0
restarts: 0
lp_iterations: 0
walltime: 3.40772
usertime: 3.40772
deterministic_time: 12.5476
gap_integral: 26.8851
solution_fingerprint: 0xebc05feb63069038

